
Gurobi 10.0.1 (linux64) logging started Sun Nov 26 15:38:15 2023

Set parameter LogFile to value "ArtificialInstance/ExperimentV2/S4T4K3/AdSp/gurobi1.txt"
Gurobi Optimizer version 10.0.1 build v10.0.1rc0 (linux64)

CPU model: AMD EPYC 7H12 64-Core Processor, instruction set [SSE2|AVX|AVX2]
Thread count: 128 physical cores, 128 logical processors, using up to 32 threads

Academic license 656792 - for non-commercial use only - registered to b.___@student.vu.nl
Optimize a model with 21620 rows, 20430 columns and 78766 nonzeros
Model fingerprint: 0x4eba9f64
Variable types: 0 continuous, 20430 integer (20430 binary)
Coefficient statistics:
  Matrix range     [1e+00, 1e+00]
  Objective range  [9e-01, 2e+01]
  Bounds range     [1e+00, 1e+00]
  RHS range        [1e+00, 1e+00]
Presolve removed 6900 rows and 6915 columns
Presolve time: 0.45s
Presolved: 14720 rows, 13515 columns, 52884 nonzeros
Variable types: 0 continuous, 13515 integer (13515 binary)

Root relaxation: objective 7.736620e+01, 8826 iterations, 0.56 seconds (0.36 work units)

    Nodes    |    Current Node    |     Objective Bounds      |     Work
 Expl Unexpl |  Obj  Depth IntInf | Incumbent    BestBd   Gap | It/Node Time

     0     0   77.36620    0   51          -   77.36620      -     -    1s
H    0     0                      91.8074853   77.36620  15.7%     -    1s
H    0     0                      78.9334244   77.36620  1.99%     -    1s
     0     0   77.93377    0  162   78.93342   77.93377  1.27%     -    1s
     0     0     cutoff    0        78.93342   78.93342  0.00%     -    2s

Explored 1 nodes (13662 simplex iterations) in 2.05 seconds (1.28 work units)
Thread count was 32 (of 128 available processors)

Solution count 2: 78.9334 91.8075 

Optimal solution found (tolerance 1.00e-04)
Best objective 7.893342438351e+01, best bound 7.893342438351e+01, gap 0.0000%
